NAME 
ROWS
 N  OBJ
 L  R0      
 L  R1      
 E  R2      
 E  R3      
 E  R4      
 E  R5      
 E  R6      
 E  R7      
 E  R8      
 E  R9      
 E  R10     
 E  R11     
 E  R12     
 E  R13     
 E  R14     
 E  R15     
 E  R16     
COLUMNS
    MARKER    'MARKER'                 'INTORG'
    I0(9)     OBJ       -128
    I0(9)     R0        42
    I0(9)     R1        199
    I0(9)     R2        7
    I0(9)     R4        11
    I0(9)     R5        7
    I0(9)     R6        5
    I0(9)     R8        17
    I0(9)     R10       15
    I0(9)     R16       1
    I1(6)     OBJ       -149
    I1(6)     R0        134
    I1(6)     R1        -129
    I1(6)     R3        2
    I1(6)     R4        16
    I1(6)     R7        5
    I1(6)     R16       1
    I2(6)     OBJ       160
    I2(6)     R0        -68
    I2(6)     R1        -171
    I2(6)     R4        17
    I2(6)     R8        2
    I2(6)     R9        12
    I2(6)     R16       1
    I3(7)     OBJ       15
    I3(7)     R0        97
    I3(7)     R1        37
    I3(7)     R4        19
    I3(7)     R5        8
    I3(7)     R6        16
    I3(7)     R8        2
    I3(7)     R16       1
    I4(8)     OBJ       -31
    I4(8)     R0        -189
    I4(8)     R1        -168
    I4(8)     R2        18
    I4(8)     R5        11
    I4(8)     R6        17
    I4(8)     R8        6
    I4(8)     R9        6
    I4(8)     R16       1
    I5(8)     OBJ       -32
    I5(8)     R0        1
    I5(8)     R1        139
    I5(8)     R5        14
    I5(8)     R6        18
    I5(8)     R8        2
    I5(8)     R9        1
    I5(8)     R10       3
    I5(8)     R16       1
    I6(8)     OBJ       7
    I6(8)     R0        -127
    I6(8)     R1        -117
    I6(8)     R2        9
    I6(8)     R5        2
    I6(8)     R6        18
    I6(8)     R9        11
    I6(8)     R10       7
    I6(8)     R16       1
    I7(8)     OBJ       74
    I7(8)     R0        -4
    I7(8)     R1        111
    I7(8)     R3        9
    I7(8)     R4        17
    I7(8)     R6        18
    I7(8)     R7        17
    I7(8)     R9        15
    I7(8)     R16       1
    I8(9)     OBJ       168
    I8(9)     R0        97
    I8(9)     R1        -144
    I8(9)     R3        7
    I8(9)     R4        7
    I8(9)     R5        10
    I8(9)     R8        7
    I8(9)     R9        14
    I8(9)     R10       1
    I8(9)     R16       1
    MARKER    'MARKER'                 'INTEND'
    C9(10)    OBJ       -4
    C9(10)    R0        2
    C9(10)    R1        -7
    C9(10)    R2        8
    C9(10)    R3        6
    C9(10)    R4        9
    C9(10)    R6        4
    C9(10)    R7        19
    C9(10)    R9        16
    C9(10)    R12       9
    C9(10)    R15       16
    C10(7)    OBJ       9
    C10(7)    R0        9
    C10(7)    R3        3
    C10(7)    R6        1
    C10(7)    R8        4
    C10(7)    R11       15
    C10(7)    R13       17
    C10(7)    R15       9
    C11(9)    OBJ       -6
    C11(9)    R0        6
    C11(9)    R1        -3
    C11(9)    R3        19
    C11(9)    R4        17
    C11(9)    R6        15
    C11(9)    R9        6
    C11(9)    R12       5
    C11(9)    R13       1
    C11(9)    R15       2
    C12(7)    OBJ       7
    C12(7)    R0        9
    C12(7)    R3        10
    C12(7)    R4        9
    C12(7)    R5        14
    C12(7)    R8        7
    C12(7)    R9        4
    C12(7)    R12       14
    C13(7)    OBJ       -9
    C13(7)    R0        -6
    C13(7)    R1        1
    C13(7)    R5        16
    C13(7)    R8        9
    C13(7)    R9        2
    C13(7)    R12       17
    C13(7)    R13       17
    C14(9)    OBJ       2
    C14(9)    R0        -9
    C14(9)    R1        4
    C14(9)    R3        10
    C14(9)    R4        -1
    C14(9)    R7        5
    C14(9)    R9        8
    C14(9)    R10       1
    C14(9)    R11       9
    C14(9)    R13       16
    C15(1)    R2        1
    C16(1)    R3        1
    C17(1)    R4        1
    C18(1)    R5        1
    C19(1)    R6        1
    C20(1)    R7        1
    C21(1)    R8        1
    C22(1)    R9        1
    C23(1)    R10       1
    C24(1)    R11       1
    C25(1)    R12       1
    C26(1)    R13       1
    C27(1)    R14       1
    C28(1)    R15       1
    C29(1)    R16       1
RHS
    RHS1      R0        3.0724409448818909e+02
    RHS1      R1        -8.6677165354330725e+01
    RHS1      R2        67
    RHS1      R3        87
    RHS1      R4        99
    RHS1      R5        55
    RHS1      R6        95
    RHS1      R7        89
    RHS1      R8        58
    RHS1      R9        91
    RHS1      R10       88
    RHS1      R11       57
    RHS1      R12       99
    RHS1      R13       83
    RHS1      R14       94
    RHS1      R15       64
    RHS1      R16       3
BOUNDS
 UP BND1      I0(9)     2
 UP BND1      I1(6)     2
 UP BND1      I2(6)     2
 UP BND1      I3(7)     2
 UP BND1      I4(8)     2
 UP BND1      I5(8)     2
 UP BND1      I6(8)     2
 UP BND1      I7(8)     2
 UP BND1      I8(9)     2
ENDATA
